
Gurobi 10.0.1 (mac64[arm]) logging started Sun Apr  7 13:50:10 2024

Set parameter LogFile to value "/Users/deniserings/Documents/zib/s-bahn-data/scripts/DeniseMA/processed/BBUP_W/Branching/BBUP_W_other alternatives_subMBP202404071201.log"
Gurobi Optimizer version 10.0.1 build v10.0.1rc0 (mac64[arm])

CPU model: Apple M2
Thread count: 8 physical cores, 8 logical processors, using up to 8 threads

Optimize a model with 12174 rows, 5181 columns and 44779 nonzeros
Model fingerprint: 0x2e489420
Variable types: 2316 continuous, 2865 integer (59 binary)
Coefficient statistics:
  Matrix range     [1e+00, 2e+02]
  Objective range  [1e+00, 4e+02]
  Bounds range     [1e+00, 2e+02]
  RHS range        [1e+00, 5e+02]

Loaded user MIP start with objective 15083

Presolve removed 5822 rows and 1924 columns
Presolve time: 0.13s
Presolved: 6352 rows, 3257 columns, 24146 nonzeros
Variable types: 1050 continuous, 2207 integer (2207 binary)

Root relaxation: objective 1.269604e+04, 2094 iterations, 0.02 seconds (0.01 work units)

    Nodes    |    Current Node    |     Objective Bounds      |     Work
 Expl Unexpl |  Obj  Depth IntInf | Incumbent    BestBd   Gap | It/Node Time

     0     0 12696.0447    0  122 15083.0000 12696.0447  15.8%     -    0s
     0     0 12740.3743    0  391 15083.0000 12740.3743  15.5%     -    0s
     0     0 12740.3743    0  401 15083.0000 12740.3743  15.5%     -    0s
     0     0 12751.0356    0  451 15083.0000 12751.0356  15.5%     -    0s
     0     0 12751.0356    0  438 15083.0000 12751.0356  15.5%     -    0s
     0     0 12752.2723    0  430 15083.0000 12752.2723  15.5%     -    0s
     0     0 12754.2488    0  387 15083.0000 12754.2488  15.4%     -    0s
     0     0 12754.2488    0  374 15083.0000 12754.2488  15.4%     -    0s
     0     0 12755.2568    0  402 15083.0000 12755.2568  15.4%     -    0s
     0     0 12755.2568    0  405 15083.0000 12755.2568  15.4%     -    0s
     0     0 12755.2568    0  445 15083.0000 12755.2568  15.4%     -    1s
     0     0 12755.2568    0  403 15083.0000 12755.2568  15.4%     -    1s
     0     0 12755.2568    0  164 15083.0000 12755.2568  15.4%     -    1s
     0     0 12755.2568    0  227 15083.0000 12755.2568  15.4%     -    1s
H    0     0                    15082.999965 12755.2568  15.4%     -    1s
     0     0 12755.2568    0  118 15083.0000 12755.2568  15.4%     -    1s
     0     0 12755.2568    0  157 15083.0000 12755.2568  15.4%     -    1s
     0     0 12755.7925    0  133 15083.0000 12755.7925  15.4%     -    1s
     0     0 12755.7925    0  132 15083.0000 12755.7925  15.4%     -    2s
     0     0 12761.3089    0  131 15083.0000 12761.3089  15.4%     -    2s
     0     0 12761.3089    0  212 15083.0000 12761.3089  15.4%     -    2s
     0     0 12761.3089    0  200 15083.0000 12761.3089  15.4%     -    2s
     0     0 12761.3089    0  207 15083.0000 12761.3089  15.4%     -    2s
H    0     0                    15082.000000 12761.3089  15.4%     -    2s
     0     0 12761.3089    0  278 15082.0000 12761.3089  15.4%     -    2s
     0     0 12761.3089    0  235 15082.0000 12761.3089  15.4%     -    3s
     0     0 12761.3089    0  312 15082.0000 12761.3089  15.4%     -    3s
     0     0 12761.3089    0  333 15082.0000 12761.3089  15.4%     -    3s
H    0     0                    15074.000000 12761.3089  15.3%     -    3s
     0     0 12761.3089    0  108 15074.0000 12761.3089  15.3%     -    3s
     0     0 12761.3089    0  162 15074.0000 12761.3089  15.3%     -    3s
H    0     0                    15073.999961 12761.3089  15.3%     -    4s
     0     0 12761.9380    0  130 15074.0000 12761.9380  15.3%     -    4s
     0     0 12761.9380    0  206 15074.0000 12761.9380  15.3%     -    4s
     0     0 12761.9380    0  111 15074.0000 12761.9380  15.3%     -    4s
     0     0 12761.9380    0  109 15074.0000 12761.9380  15.3%     -    4s
     0     2 12761.9380    0   94 15074.0000 12761.9380  15.3%     -    5s
H  147   124                    15073.999910 12768.0000  15.3%  92.4    5s
H  233   211                    15070.000000 12768.0000  15.3%  71.2    6s
H  454   398                    15067.000000 12768.0000  15.3%  54.1    6s
H  465   398                    15065.000000 12768.0000  15.2%  53.9    6s
H  525   558                    15062.000000 12768.0000  15.2%  50.9    7s
H 1090   854                    15057.000000 12768.0000  15.2%  37.3    8s
H 1101   854                    15053.000000 12768.0000  15.2%  37.6    8s
  1616  1251 13312.0000   75  202 15053.0000 12768.0000  15.2%  33.0   10s
  1639  1266 13916.0000   99  110 15053.0000 12778.0000  15.1%  32.6   15s
H 1639  1202                    15052.999970 12778.0000  15.1%  32.6   15s
H 1673  1171                    15052.999629 12778.0000  15.1%  44.6   15s
H 1750  1165                    15052.999566 12778.0000  15.1%  44.5   16s
H 1758  1108                    15052.998530 12778.0000  15.1%  44.4   16s
H 1990  1147                    15052.000000 12778.0000  15.1%  43.0   18s
H 1995  1097                    15050.000000 12778.0000  15.1%  43.3   18s
H 2055  1082                    14971.000000 12778.0000  14.6%  43.6   19s
H 2168  1223                    14963.000000 12778.0000  14.6%  43.3   19s
  2356  1179 infeasible   50      14963.0000 12778.0000  14.6%  41.7   20s
H 3214  1406                    14960.000000 12778.0000  14.6%  39.3   22s
H 3797  1590                    14959.999949 12778.0000  14.6%  38.2   24s
H 3833  1580                    14955.000000 12778.0000  14.6%  38.6   24s
  3943  1978 12908.1429   23  221 14955.0000 12778.0000  14.6%  38.8   25s
H 5592  2765                    14954.999909 12778.0000  14.6%  35.9   28s
  6619  3734 13972.0000   88  122 14954.9999 12778.0000  14.6%  34.0   30s
H 6813  3734                    14954.999633 12778.0000  14.6%  33.6   30s
H 7230  4203                    14948.000000 12778.0000  14.5%  33.5   31s
H 8942  5331                    14940.000000 12778.0000  14.5%  32.0   34s
H 9168  5331                    14938.000000 12778.0000  14.5%  32.1   34s
  9377  5757 13580.0000   65  143 14938.0000 12778.0000  14.5%  32.8   35s
 10871  6696 12778.0000   21  271 14938.0000 12778.0000  14.5%  33.7   40s
H10969  6696                    14937.999980 12778.0000  14.5%  33.6   40s
H11006  6696                    14937.999908 12778.0000  14.5%  33.7   40s
 13622  8555 12828.1711   22  278 14937.9999 12778.0000  14.5%  33.4   45s
 15056 10534 13257.7219   38  215 14937.9999 12778.0000  14.5%  34.0   52s
 19489 11761 infeasible   53      14937.9999 12778.0000  14.5%  33.4   55s
 21628 13995 12878.0000   32  233 14937.9999 12778.0000  14.5%  35.0   61s
 24951 14976 infeasible   69      14937.9999 12778.0000  14.5%  35.7   66s
H25471 15524                    14937.999615 12778.0000  14.5%  36.4   69s
 25887 16549 13353.0000   38  189 14937.9996 12778.0000  14.5%  36.6   70s
H27767 16643                    14937.999559 12778.0000  14.5%  36.9   72s
 28434 17524 14647.3647   60   63 14937.9996 12778.0000  14.5%  37.5   75s
 29599 17525 13598.0000   55  132 14937.9996 12778.0000  14.5%  37.8   86s
 29610 17532 13172.5866   69  246 14937.9996 13172.5866  11.8%  37.8   90s
 29623 17543 13763.0000   69  332 14937.9996 13172.5866  11.8%  38.3   95s
 29628 17546 13302.0000   69  128 14937.9996 13172.5866  11.8%  38.3  100s
 29633 17549 13573.8808   43  287 14937.9996 13172.5874  11.8%  38.3  105s
 29645 17557 14270.9365   99  237 14937.9996 13173.4486  11.8%  38.3  110s
 29654 17563 13883.0000   50  288 14937.9996 13174.6347  11.8%  38.3  115s
 29659 17567 14658.0000   92  177 14937.9996 13174.6347  11.8%  38.3  120s
 29963 17805 13218.0000   58  278 14937.9996 13176.0000  11.8%  39.7  125s
 30417 18043 13176.0000   81  238 14937.9996 13176.0000  11.8%  39.8  130s
 31058 18344 13176.0000   52  213 14937.9996 13176.0000  11.8%  39.8  268s

Cutting planes:
  Learned: 4
  Gomory: 72
  Cover: 329
  Implied bound: 44
  Projected implied bound: 16
  Clique: 47
  MIR: 50
  StrongCG: 66
  Flow cover: 198
  GUB cover: 5
  Inf proof: 6
  Zero half: 4
  Network: 14
  RLT: 4
  Relax-and-lift: 21

Explored 31244 nodes (1278819 simplex iterations) in 268.37 seconds (89.68 work units)
Thread count was 8 (of 8 available processors)

Solution count 10: 14938 14938 14938 ... 14955

Solve interrupted
Best objective 1.493799955863e+04, best bound 1.317600000000e+04, gap 11.7954%

User-callback calls 108214, time in user-callback 0.51 sec

Statistics for modelBBUP_W:
  Linear constraint matrix    : 12174 Constrs, 5181 Vars, 44779 NZs
  Variable types              : 2316 Continuous,
2865 Integer (59 Binary)
  Matrix coefficient range    : [ 1, 200 ]
  Objective coefficient range : [ 1, 384 ]
  Variable bound range        : [ 1, 199 ]
  RHS coefficient range       : [ 1, 549 ]

Gurobi 10.0.1 (mac64[arm]) logging started Sun Apr  7 13:54:39 2024

Set parameter LogFile to value "/Users/deniserings/Documents/zib/s-bahn-data/scripts/DeniseMA/processed/BBUP_W/Branching/BBUP_W_other alternatives_subMBP202404071201.log"
Gurobi Optimizer version 10.0.1 build v10.0.1rc0 (mac64[arm])

CPU model: Apple M2
Thread count: 8 physical cores, 8 logical processors, using up to 8 threads

Optimize a model with 12168 rows, 5181 columns and 44773 nonzeros
Model fingerprint: 0xf7c6f62c
Variable types: 2316 continuous, 2865 integer (59 binary)
Coefficient statistics:
  Matrix range     [1e+00, 2e+02]
  Objective range  [1e+00, 4e+02]
  Bounds range     [1e+00, 2e+02]
  RHS range        [1e+00, 5e+02]

Loaded user MIP start with objective 15083

Presolve removed 5598 rows and 1773 columns
Presolve time: 0.18s
Presolved: 6570 rows, 3408 columns, 24922 nonzeros
Variable types: 1093 continuous, 2315 integer (2315 binary)

Root relaxation: objective 1.268804e+04, 2307 iterations, 0.02 seconds (0.01 work units)

    Nodes    |    Current Node    |     Objective Bounds      |     Work
 Expl Unexpl |  Obj  Depth IntInf | Incumbent    BestBd   Gap | It/Node Time

     0     0 12688.0447    0  104 15083.0000 12688.0447  15.9%     -    0s
     0     0 12734.0000    0  462 15083.0000 12734.0000  15.6%     -    0s
     0     0 12734.0000    0  441 15083.0000 12734.0000  15.6%     -    0s
     0     0 12740.8913    0  493 15083.0000 12740.8913  15.5%     -    0s
     0     0 12740.8913    0  463 15083.0000 12740.8913  15.5%     -    0s
     0     0 12744.4234    0  410 15083.0000 12744.4234  15.5%     -    0s
     0     0 12744.4234    0  393 15083.0000 12744.4234  15.5%     -    0s
     0     0 12744.4234    0  354 15083.0000 12744.4234  15.5%     -    0s
     0     0 12744.4234    0  376 15083.0000 12744.4234  15.5%     -    0s
     0     0 12745.3951    0  117 15083.0000 12745.3951  15.5%     -    1s
     0     0 12745.3951    0  298 15083.0000 12745.3951  15.5%     -    1s
H    0     0                    15082.999898 12745.3951  15.5%     -    1s
     0     0 12745.3951    0  143 15082.9999 12745.3951  15.5%     -    1s
     0     0 12746.8183    0  263 15082.9999 12746.8183  15.5%     -    1s
     0     0 12758.4677    0  188 15082.9999 12758.4677  15.4%     -    1s
     0     0 12760.1055    0  324 15082.9999 12760.1055  15.4%     -    1s
     0     0 12760.1055    0  294 15082.9999 12760.1055  15.4%     -    1s
     0     0 12760.1055    0  456 15082.9999 12760.1055  15.4%     -    1s
     0     0 12760.1055    0  473 15082.9999 12760.1055  15.4%     -    1s
     0     0 12760.1998    0  477 15082.9999 12760.1998  15.4%     -    1s
H    0     0                    15074.000000 12760.1998  15.3%     -    1s
     0     0 12760.1998    0  492 15074.0000 12760.1998  15.3%     -    1s
     0     0 12760.7664    0  449 15074.0000 12760.7664  15.3%     -    2s
     0     0 12760.7664    0  419 15074.0000 12760.7664  15.3%     -    2s
     0     0 12760.9696    0  361 15074.0000 12760.9696  15.3%     -    2s
H    0     0                    15072.000000 12760.9696  15.3%     -    2s
     0     0 12760.9696    0  407 15072.0000 12760.9696  15.3%     -    2s
     0     0 12760.9696    0  421 15072.0000 12760.9696  15.3%     -    2s
     0     0 12760.9696    0  398 15072.0000 12760.9696  15.3%     -    2s
     0     0 12760.9696    0  159 15072.0000 12760.9696  15.3%     -    2s
     0     0 12760.9696    0  331 15072.0000 12760.9696  15.3%     -    2s
     0     0 12760.9696    0  160 15072.0000 12760.9696  15.3%     -    2s
     0     0 12760.9696    0  152 15072.0000 12760.9696  15.3%     -    2s
     0     0 12760.9696    0   87 15072.0000 12760.9696  15.3%     -    3s
     0     0 12760.9696    0  259 15072.0000 12760.9696  15.3%     -    3s
H    0     0                    15071.000000 12760.9696  15.3%     -    3s
H    0     0                    15061.000000 12760.9696  15.3%     -    3s
     0     0 12761.2489    0  264 15061.0000 12761.2489  15.3%     -    3s
     0     0 12761.2489    0  283 15061.0000 12761.2489  15.3%     -    3s
     0     0 12768.8641    0  347 15061.0000 12768.8641  15.2%     -    3s
     0     0 12768.8641    0  270 15061.0000 12768.8641  15.2%     -    3s
     0     0 12768.8641    0  263 15061.0000 12768.8641  15.2%     -    3s
     0     0 12768.8641    0  267 15061.0000 12768.8641  15.2%     -    3s
     0     0 12768.8641    0  112 15061.0000 12768.8641  15.2%     -    3s
     0     0 12768.8641    0  168 15061.0000 12768.8641  15.2%     -    3s
     0     0 12768.8641    0  150 15061.0000 12768.8641  15.2%     -    3s
H    0     0                    15055.000000 12768.8641  15.2%     -    3s
     0     0 12768.8641    0  176 15055.0000 12768.8641  15.2%     -    3s
     0     0 12768.8641    0   95 15055.0000 12768.8641  15.2%     -    3s
     0     0 12768.8641    0  182 15055.0000 12768.8641  15.2%     -    4s
H    0     0                    15041.000000 12768.8641  15.1%     -    4s
     0     0 12768.8641    0  107 15041.0000 12768.8641  15.1%     -    4s
     0     0 12768.8641    0  147 15041.0000 12768.8641  15.1%     -    4s
H    0     0                    15037.000000 12768.8641  15.1%     -    4s
     0     0 12768.8641    0  138 15037.0000 12768.8641  15.1%     -    4s
     0     0 12768.8641    0  118 15037.0000 12768.8641  15.1%     -    4s
     0     2 12768.8641    0  117 15037.0000 12768.8641  15.1%     -    4s
H   36    40                    15028.000000 12778.0000  15.0%   153    4s
H   86    90                    15012.000000 12778.0000  14.9%  95.9    4s
H  111   121                    15008.000000 12778.0000  14.9%  83.5    4s
H  160   176                    14994.000000 12778.0000  14.8%  68.1    4s
H  233   253                    14993.999949 12778.0000  14.8%  56.2    5s
H  236   253                    14984.000000 12778.0000  14.7%  56.1    5s
H 1646  1264                    14980.000000 12778.0000  14.7%  27.3    5s
H 1666  1213                    14979.999947 12778.0000  14.7%  27.0    8s
H 1967  1368                    14976.999984 12778.0000  14.7%  39.2    9s
H 2067  1360                    14974.000000 12778.0000  14.7%  40.3   10s
H 2074  1303                    14970.000000 12778.0000  14.6%  40.5   10s
H 2211  1347                    14964.000000 12778.0000  14.6%  40.6   10s
H 2227  1292                    14962.000000 12778.0000  14.6%  40.5   10s
H 2423  1320                    14961.999974 12778.0000  14.6%  40.8   11s
H 2435  1271                    14960.000000 12778.0000  14.6%  40.8   11s
H 3601  2066                    14959.999965 12778.0000  14.6%  36.9   12s
H 4068  1908                    14959.999906 12778.0000  14.6%  35.3   12s
H 5806  3008                    14959.999835 12778.0000  14.6%  31.6   13s
H 5819  3008                    14959.999833 12778.0000  14.6%  31.7   13s
  7279  4492 13176.0000   45  234 14959.9998 12778.0000  14.6%  32.7   15s
H 8467  4938                    14943.000000 12778.0000  14.5%  34.3   16s
H11457  6787                    14942.999972 12778.0000  14.5%  36.5   19s
H11477  6787                    14942.999927 12778.0000  14.5%  36.6   19s
H11507  6786                    14937.999946 12778.0000  14.5%  36.7   19s
 11650  7354 13495.0000   63  127 14937.9999 12778.0000  14.5%  37.1   20s
 12506  7548 infeasible   64      14937.9999 12778.0000  14.5%  37.2  262s

Cutting planes:
  Learned: 6
  Gomory: 80
  Cover: 309
  Implied bound: 53
  Projected implied bound: 6
  Clique: 84
  MIR: 68
  StrongCG: 74
  Flow cover: 264
  GUB cover: 4
  Inf proof: 8
  Zero half: 5
  Network: 13
  RLT: 12
  Relax-and-lift: 25

Explored 12847 nodes (528163 simplex iterations) in 262.40 seconds (22.74 work units)
Thread count was 8 (of 8 available processors)

Solution count 10: 14938 14943 14943 ... 14962

Solve interrupted
Best objective 1.493799994601e+04, best bound 1.277800000000e+04, gap 14.4598%

User-callback calls 32789, time in user-callback 0.09 sec

Statistics for modelBBUP_W:
  Linear constraint matrix    : 12168 Constrs, 5181 Vars, 44773 NZs
  Variable types              : 2316 Continuous,
2865 Integer (59 Binary)
  Matrix coefficient range    : [ 1, 200 ]
  Objective coefficient range : [ 1, 384 ]
  Variable bound range        : [ 1, 199 ]
  RHS coefficient range       : [ 1, 549 ]

Gurobi 10.0.1 (mac64[arm]) logging started Sun Apr  7 13:59:02 2024

Set parameter LogFile to value "/Users/deniserings/Documents/zib/s-bahn-data/scripts/DeniseMA/processed/BBUP_W/Branching/BBUP_W_other alternatives_subMBP202404071201.log"
Gurobi Optimizer version 10.0.1 build v10.0.1rc0 (mac64[arm])

CPU model: Apple M2
Thread count: 8 physical cores, 8 logical processors, using up to 8 threads

Optimize a model with 12165 rows, 5181 columns and 44770 nonzeros
Model fingerprint: 0x432326e5
Variable types: 2316 continuous, 2865 integer (59 binary)
Coefficient statistics:
  Matrix range     [1e+00, 2e+02]
  Objective range  [1e+00, 4e+02]
  Bounds range     [1e+00, 2e+02]
  RHS range        [1e+00, 5e+02]

Loaded user MIP start with objective 15083

Presolve removed 5539 rows and 1739 columns
Presolve time: 0.12s
Presolved: 6626 rows, 3442 columns, 25314 nonzeros
Variable types: 1112 continuous, 2330 integer (2330 binary)

Root relaxation: objective 1.268804e+04, 2428 iterations, 0.02 seconds (0.01 work units)

    Nodes    |    Current Node    |     Objective Bounds      |     Work
 Expl Unexpl |  Obj  Depth IntInf | Incumbent    BestBd   Gap | It/Node Time

     0     0 12688.0447    0   76 15083.0000 12688.0447  15.9%     -    0s
     0     0 12732.5232    0  309 15083.0000 12732.5232  15.6%     -    0s
     0     0 12734.0000    0  309 15083.0000 12734.0000  15.6%     -    0s
     0     0 12748.8629    0  280 15083.0000 12748.8629  15.5%     -    0s
     0     0 12748.9632    0  338 15083.0000 12748.9632  15.5%     -    0s
     0     0 12748.9632    0  332 15083.0000 12748.9632  15.5%     -    0s
     0     0 12760.4375    0  345 15083.0000 12760.4375  15.4%     -    0s
     0     0 12760.4375    0  305 15083.0000 12760.4375  15.4%     -    0s
     0     0 12760.4375    0  345 15083.0000 12760.4375  15.4%     -    0s
     0     0 12760.4375    0  358 15083.0000 12760.4375  15.4%     -    0s
     0     0 12760.4375    0  111 15083.0000 12760.4375  15.4%     -    0s
     0     0 12760.4375    0  204 15083.0000 12760.4375  15.4%     -    1s
     0     0 12760.4708    0  134 15083.0000 12760.4708  15.4%     -    1s
     0     0 12760.4708    0  121 15083.0000 12760.4708  15.4%     -    1s
     0     2 12760.4708    0  121 15083.0000 12760.4708  15.4%     -    1s
H  104   117                    15082.999985 12763.1042  15.4%  91.0    1s
H  106   117                    15082.999972 12763.1042  15.4%  90.8    1s
H  108   117                    15082.999970 12763.1042  15.4%  90.4    1s
H  110   117                    15082.999937 12763.1042  15.4%  88.9    1s
H  171   174                    15082.999879 12763.1042  15.4%  72.8    2s
H  172   174                    15082.000000 12763.1042  15.4%  72.5    2s
H  222   218                    15072.000000 12763.1042  15.3%  65.7    2s
H  229   218                    15008.000000 12763.1042  15.0%  65.3    2s
H  300   293                    15007.999950 12763.1042  15.0%  56.4    2s
H 1373  1222                    14995.000000 12763.1042  14.9%  32.5    3s
H 1374  1222                    14990.999659 12763.1042  14.9%  32.5    3s
H 1380  1222                    14990.000000 12763.1042  14.9%  32.6    3s
H 1463  1212                    14985.000000 12770.9687  14.8%  32.1    5s
H 1474  1158                    14984.999872 12773.6360  14.8%  31.9    6s
H 1506  1127                    14984.999794 12773.6360  14.8%  51.4    7s
H 1668  1163                    14969.000000 12776.6003  14.6%  51.0    8s
H 1722  1145                    14965.000000 12776.6003  14.6%  50.4    8s
H 1725  1094                    14955.000000 12776.6003  14.6%  50.4    8s
H 1769  1076                    14954.999971 12776.6003  14.6%  50.7    8s
H 1771  1029                    14954.999899 12776.6003  14.6%  50.7    8s
  2569  1497 13680.8433   75  114 14954.9999 12776.6003  14.6%  45.1   10s
H 2780  1432                    14943.000000 12776.6003  14.5%  43.3   10s
H 2835  1407                    14942.999896 12776.6003  14.5%  43.6   10s
H 2836  1367                    14940.999910 12776.6003  14.5%  43.7   10s
H 2838  1330                    14938.000000 12776.6003  14.5%  43.7   10s
H 2845  1300                    14935.000000 12776.6003  14.5%  43.7   10s
H 4030  1916                    14933.000000 12778.0000  14.4%  44.8   12s
H 5361  2839                    14932.999980 12778.0000  14.4%  46.0   14s
H 5370  2839                    14932.999970 12778.0000  14.4%  46.4   14s
H 5376  2839                    14932.999965 12778.0000  14.4%  46.5   14s
  5603  3181 13759.4448   61  177 14933.0000 12778.0000  14.4%  47.5   15s
H 8068  4732                    14932.999908 12778.0000  14.4%  48.0   18s
  9322  5759 14159.0000   65  105 14932.9999 12778.0000  14.4%  48.4  957s

Cutting planes:
  Learned: 9
  Gomory: 189
  Cover: 437
  Implied bound: 50
  Projected implied bound: 8
  Clique: 93
  MIR: 117
  StrongCG: 75
  Flow cover: 604
  GUB cover: 2
  Inf proof: 6
  Zero half: 5
  Network: 28
  RLT: 14
  Relax-and-lift: 61

Explored 9573 nodes (487542 simplex iterations) in 957.38 seconds (24.54 work units)
Thread count was 8 (of 8 available processors)

Solution count 10: 14933 14933 14933 ... 14943

Solve interrupted
Best objective 1.493299990820e+04, best bound 1.277800000000e+04, gap 14.4311%

User-callback calls 25535, time in user-callback 0.06 sec

Statistics for modelBBUP_W:
  Linear constraint matrix    : 12165 Constrs, 5181 Vars, 44770 NZs
  Variable types              : 2316 Continuous,
2865 Integer (59 Binary)
  Matrix coefficient range    : [ 1, 200 ]
  Objective coefficient range : [ 1, 384 ]
  Variable bound range        : [ 1, 199 ]
  RHS coefficient range       : [ 1, 549 ]

Gurobi 10.0.1 (mac64[arm]) logging started Sun Apr  7 14:15:00 2024

Set parameter LogFile to value "/Users/deniserings/Documents/zib/s-bahn-data/scripts/DeniseMA/processed/BBUP_W/Branching/BBUP_W_other alternatives_subMBP202404071201.log"
Gurobi Optimizer version 10.0.1 build v10.0.1rc0 (mac64[arm])

CPU model: Apple M2
Thread count: 8 physical cores, 8 logical processors, using up to 8 threads

Optimize a model with 12164 rows, 5181 columns and 44769 nonzeros
Model fingerprint: 0xac097301
Variable types: 2316 continuous, 2865 integer (59 binary)
Coefficient statistics:
  Matrix range     [1e+00, 2e+02]
  Objective range  [1e+00, 4e+02]
  Bounds range     [1e+00, 2e+02]
  RHS range        [1e+00, 5e+02]

Loaded user MIP start with objective 15083

Presolve removed 5527 rows and 1731 columns
Presolve time: 0.10s
Presolved: 6637 rows, 3450 columns, 25405 nonzeros
Variable types: 1118 continuous, 2332 integer (2332 binary)

Root relaxation: objective 1.268804e+04, 2382 iterations, 0.01 seconds (0.01 work units)

    Nodes    |    Current Node    |     Objective Bounds      |     Work
 Expl Unexpl |  Obj  Depth IntInf | Incumbent    BestBd   Gap | It/Node Time

     0     0 12688.0447    0   85 15083.0000 12688.0447  15.9%     -    0s
     0     0 12732.3769    0  352 15083.0000 12732.3769  15.6%     -    0s
     0     0 12732.3769    0  325 15083.0000 12732.3769  15.6%     -    0s
     0     0 12742.5681    0  406 15083.0000 12742.5681  15.5%     -    0s
     0     0 12742.5681    0  395 15083.0000 12742.5681  15.5%     -    0s
     0     0 12742.5681    0  424 15083.0000 12742.5681  15.5%     -    0s
     0     0 12742.5681    0  394 15083.0000 12742.5681  15.5%     -    0s
     0     0 12745.4918    0  152 15083.0000 12745.4918  15.5%     -    0s
     0     0 12745.4918    0  204 15083.0000 12745.4918  15.5%     -    0s
     0     0 12745.9690    0  315 15083.0000 12745.9690  15.5%     -    0s
     0     0 12745.9690    0  355 15083.0000 12745.9690  15.5%     -    0s
     0     0 12746.9215    0  141 15083.0000 12746.9215  15.5%     -    1s
     0     0 12746.9215    0  130 15083.0000 12746.9215  15.5%     -    1s
     0     2 12749.8001    0  130 15083.0000 12749.8001  15.5%     -    1s
H   31    40                    15080.000000 12760.1434  15.4%   304    1s
H  123   117                    15079.999895 12768.0000  15.3%   101    1s
H  125   117                    15075.000000 12768.0000  15.3%   101    1s
H  156   144                    15074.999960 12768.0000  15.3%   104    1s
H  157   144                    15074.999931 12768.0000  15.3%   104    1s
H  173   152                    15026.000000 12768.0000  15.0%   102    1s
H  174   152                    15004.000000 12768.0000  14.9%   102    1s
H  327   291                    14996.000000 12768.0000  14.9%  70.9    2s
H  520   449                    14986.000000 12768.0000  14.8%  56.1    3s
H  974   820                    14985.999913 12768.0000  14.8%  42.7    3s
  1474  1042 13339.0000   42  130 14985.9999 12768.0000  14.8%  38.7  938s

Explored 1474 nodes (69564 simplex iterations) in 938.83 seconds (3.36 work units)
Thread count was 8 (of 8 available processors)

Solution count 10: 14986 14986 14996 ... 15080

Solve interrupted
Best objective 1.498599991322e+04, best bound 1.276800000000e+04, gap 14.8005%

User-callback calls 4583, time in user-callback 0.03 sec

Statistics for modelBBUP_W:
  Linear constraint matrix    : 12164 Constrs, 5181 Vars, 44769 NZs
  Variable types              : 2316 Continuous,
2865 Integer (59 Binary)
  Matrix coefficient range    : [ 1, 200 ]
  Objective coefficient range : [ 1, 384 ]
  Variable bound range        : [ 1, 199 ]
  RHS coefficient range       : [ 1, 549 ]
